NAME: cities_5_5
TYPE: TSP
COMMENT: Generated from CSV
DIMENSION: 5
EDGE_WEIGHT_TYPE: EUC_2D
NODE_COORD_SECTION
1 5.65863047259445 18.67916299409974
2 75.95919276210941 12.256246677998206
3 41.60831466455104 0.3885101668872237
4 3.331095086431035 0.2537034489124123
5 2.077106548957741 23.3047298983862
EOF
